c CNF file generated from BLIF2CNF script.
c Original BLIF file was -
p cnf 48 110
1 -5 0
5 -1  0
-5 4 0
2 -6 0
6 -2  0
-6 4 0
-3 -7 0
7 3  0
-7 4 0
-4 5 6 7  0
-1 -9 0
9 1  0
-9 8 0
2 -10 0
10 -2  0
-10 8 0
-3 -11 0
11 3  0
-11 8 0
-8 9 10 11  0
1 -13 0
13 -1  0
-13 12 0
-2 -14 0
14 2  0
-14 12 0
-3 -15 0
15 3  0
-15 12 0
-12 13 14 15  0
-1 -17 0
17 1  0
-17 16 0
-2 -18 0
18 2  0
-18 16 0
-3 -19 0
19 3  0
-19 16 0
-16 17 18 19  0
1 -22 0
22 -1  0
-22 21 0
2 -23 0
23 -2  0
-23 21 0
-20 -24 0
24 20  0
-24 21 0
-21 22 23 24  0
-1 -26 0
26 1  0
-26 25 0
2 -27 0
27 -2  0
-27 25 0
-20 -28 0
28 20  0
-28 25 0
-25 26 27 28  0
1 -30 0
30 -1  0
-30 29 0
-2 -31 0
31 2  0
-31 29 0
-20 -32 0
32 20  0
-32 29 0
-29 30 31 32  0
-1 -34 0
34 1  0
-34 33 0
-2 -35 0
35 2  0
-35 33 0
-20 -36 0
36 20  0
-36 33 0
-33 34 35 36  0
1 -39 0
39 -1  0
-39 38 0
-37 -40 0
40 37  0
-40 38 0
-38 39 40  0
-1 -42 0
42 1  0
-42 41 0
-37 -43 0
43 37  0
-43 41 0
-41 42 43  0
-2 -46 0
-44 -46 0
45 -46 0
46 2 44 -45  0
-46 37 0
-37 46  0
-44 -47 0
-45 -47 0
47 44 45  0
-47 3 0
-3 47  0
-3 -48 0
-45 -48 0
48 3 45  0
-48 20 0
-20 48  0
